unsat
(define-fun skel ((n284 Bool) (n261 Bool) (n253 Bool) (n170 Bool)) Bool (let ((_let_1 (and n253 n170))) (and n284 (and (or n261 _let_1) (not (and n261 _let_1))))))
30.55user 0.01system 0:30.57elapsed 99%CPU (0avgtext+0avgdata 69552maxresident)k
0inputs+8outputs (0major+12175minor)pagefaults 0swaps
